55
1 0 47
2 0 46
2 1 48
3 0 45
3 1 26
3 2 20
4 0 38
4 1 43
4 2 25
4 3 17
5 0 25
5 1 16
5 2 28
5 3 7
5 4 38
6 0 37
6 1 21
6 2 39
6 3 19
6 4 39
6 5 37
7 0 47
7 1 18
7 2 40
7 3 35
7 4 35
7 5 24
7 6 25
8 0 28
8 1 48
8 2 35
8 3 36
8 4 3
8 5 5
8 6 29
8 7 29
9 0 18
9 1 48
9 2 17
9 3 16
9 4 7
9 5 29
9 6 23
9 7 14
9 8 39
10 0 33
10 1 40
10 2 20
10 3 47
10 4 33
10 5 36
10 6 43
10 7 42
10 8 30
10 9 24
11 0 26
11 1 3
11 2 34
11 3 10
11 4 43
11 5 46
11 6 34
11 7 2
11 8 7
11 9 12
11 10 43
12 0 10
12 1 49
12 2 25
12 3 10
12 4 7
12 5 47
12 6 34
12 7 40
12 8 7
12 9 15
12 10 42
12 11 40
13 0 38
13 1 27
13 2 39
13 3 19
13 4 13
13 5 6
13 6 6
13 7 30
13 8 35
13 9 11
13 10 24
13 11 49
13 12 28
14 0 6
14 1 42
14 2 15
14 3 39
14 4 1
14 5 5
14 6 48
14 7 42
14 8 16
14 9 29
14 10 35
14 11 11
14 12 4
14 13 41
15 0 40
15 1 4
15 2 3
15 3 46
15 4 48
15 5 31
15 6 11
15 7 28
15 8 14
15 9 36
15 10 50
15 11 47
15 12 16
15 13 14
15 14 31
16 0 35
16 1 9
16 2 21
16 3 7
16 4 27
16 5 33
16 6 1
16 7 1
16 8 43
16 9 19
16 10 37
16 11 32
16 12 34
16 13 17
16 14 13
16 15 39
17 0 44
17 1 9
17 2 14
17 3 49
17 4 18
17 5 3
17 6 40
17 7 29
17 8 33
17 9 6
17 10 29
17 11 33
17 12 12
17 13 46
17 14 34
17 15 2
17 16 9
18 0 6
18 1 34
18 2 17
18 3 21
18 4 24
18 5 43
18 6 37
18 7 28
18 8 46
18 9 22
18 10 30
18 11 33
18 12 6
18 13 43
18 14 22
18 15 2
18 16 2
18 17 17
19 0 46
19 1 30
19 2 12
19 3 20
19 4 29
19 5 14
19 6 43
19 7 12
19 8 28
19 9 36
19 10 41
19 11 43
19 12 44
19 13 17
19 14 17
19 15 23
19 16 22
19 17 7
19 18 49
20 0 31
20 1 18
20 2 5
20 3 43
20 4 47
20 5 47
20 6 6
20 7 34
20 8 29
20 9 24
20 10 22
20 11 32
20 12 33
20 13 44
20 14 28
20 15 24
20 16 14
20 17 28
20 18 31
20 19 14
21 0 6
21 1 12
21 2 50
21 3 27
21 4 13
21 5 22
21 6 30
21 7 47
21 8 10
21 9 5
21 10 40
21 11 28
21 12 49
21 13 16
21 14 29
21 15 31
21 16 44
21 17 16
21 18 36
21 19 50
21 20 5
22 0 48
22 1 19
22 2 1
22 3 25
22 4 28
22 5 31
22 6 14
22 7 13
22 8 49
22 9 6
22 10 29
22 11 44
22 12 41
22 13 39
22 14 12
22 15 7
22 16 25
22 17 31
22 18 5
22 19 41
22 20 24
22 21 7
23 0 23
23 1 10
23 2 49
23 3 12
23 4 19
23 5 35
23 6 42
23 7 9
23 8 4
23 9 24
23 10 14
23 11 20
23 12 34
23 13 13
23 14 3
23 15 42
23 16 15
23 17 11
23 18 50
23 19 23
23 20 7
23 21 26
23 22 40
24 0 46
24 1 19
24 2 31
24 3 50
24 4 20
24 5 40
24 6 48
24 7 3
24 8 31
24 9 21
24 10 7
24 11 13
24 12 39
24 13 41
24 14 40
24 15 38
24 16 31
24 17 29
24 18 10
24 19 41
24 20 25
24 21 14
24 22 28
24 23 29
25 0 8
25 1 1
25 2 18
25 3 9
25 4 44
25 5 4
25 6 29
25 7 32
25 8 35
25 9 24
25 10 42
25 11 33
25 12 26
25 13 24
25 14 50
25 15 8
25 16 32
25 17 17
25 18 26
25 19 14
25 20 25
25 21 35
25 22 34
25 23 6
25 24 27
26 0 22
26 1 18
26 2 31
26 3 16
26 4 9
26 5 21
26 6 1
26 7 25
26 8 20
26 9 11
26 10 9
26 11 11
26 12 48
26 13 16
26 14 21
26 15 49
26 16 31
26 17 8
26 18 36
26 19 8
26 20 33
26 21 18
26 22 33
26 23 35
26 24 45
26 25 4
27 0 3
27 1 17
27 2 27
27 3 2
27 4 24
27 5 5
27 6 30
27 7 43
27 8 47
27 9 11
27 10 10
27 11 18
27 12 32
27 13 47
27 14 26
27 15 49
27 16 14
27 17 6
27 18 21
27 19 38
27 20 24
27 21 12
27 22 11
27 23 14
27 24 23
27 25 21
27 26 31
28 0 27
28 1 32
28 2 23
28 3 13
28 4 33
28 5 8
28 6 8
28 7 14
28 8 5
28 9 23
28 10 10
28 11 32
28 12 27
28 13 4
28 14 24
28 15 12
28 16 33
28 17 37
28 18 41
28 19 13
28 20 23
28 21 10
28 22 9
28 23 44
28 24 49
28 25 10
28 26 41
28 27 33
29 0 24
29 1 1
29 2 15
29 3 2
29 4 17
29 5 2
29 6 2
29 7 34
29 8 21
29 9 16
29 10 43
29 11 48
29 12 28
29 13 24
29 14 33
29 15 18
29 16 16
29 17 44
29 18 22
29 19 48
29 20 23
29 21 17
29 22 1
29 23 47
29 24 23
29 25 31
29 26 5
29 27 7
29 28 9
30 0 22
30 1 4
30 2 46
30 3 31
30 4 45
30 5 1
30 6 34
30 7 49
30 8 15
30 9 4
30 10 10
30 11 50
30 12 6
30 13 24
30 14 15
30 15 45
30 16 18
30 17 22
30 18 30
30 19 18
30 20 23
30 21 35
30 22 19
30 23 44
30 24 36
30 25 48
30 26 1
30 27 37
30 28 47
30 29 44
31 0 2
31 1 44
31 2 21
31 3 29
31 4 11
31 5 22
31 6 37
31 7 4
31 8 1
31 9 16
31 10 3
31 11 45
31 12 16
31 13 32
31 14 33
31 15 24
31 16 24
31 17 23
31 18 2
31 19 32
31 20 33
31 21 12
31 22 42
31 23 11
31 24 30
31 25 11
31 26 12
31 27 47
31 28 32
31 29 14
31 30 44
32 0 45
32 1 10
32 2 2
32 3 10
32 4 5
32 5 37
32 6 32
32 7 45
32 8 23
32 9 46
32 10 46
32 11 38
32 12 33
32 13 29
32 14 17
32 15 8
32 16 36
32 17 32
32 18 31
32 19 10
32 20 43
32 21 11
32 22 4
32 23 32
32 24 25
32 25 20
32 26 8
32 27 44
32 28 3
32 29 22
32 30 20
32 31 6
33 0 6
33 1 26
33 2 14
33 3 23
33 4 48
33 5 12
33 6 3
33 7 7
33 8 36
33 9 14
33 10 15
33 11 16
33 12 30
33 13 15
33 14 2
33 15 36
33 16 40
33 17 34
33 18 50
33 19 43
33 20 9
33 21 40
33 22 37
33 23 36
33 24 36
33 25 48
33 26 40
33 27 47
33 28 33
33 29 5
33 30 48
33 31 50
33 32 13
34 0 1
34 1 46
34 2 3
34 3 5
34 4 34
34 5 43
34 6 15
34 7 10
34 8 34
34 9 49
34 10 42
34 11 4
34 12 9
34 13 37
34 14 42
34 15 6
34 16 42
34 17 26
34 18 9
34 19 20
34 20 24
34 21 47
34 22 39
34 23 47
34 24 22
34 25 47
34 26 34
34 27 9
34 28 49
34 29 22
34 30 8
34 31 46
34 32 17
34 33 16
35 0 39
35 1 13
35 2 48
35 3 32
35 4 45
35 5 10
35 6 3
35 7 39
35 8 9
35 9 38
35 10 49
35 11 37
35 12 10
35 13 50
35 14 19
35 15 32
35 16 49
35 17 10
35 18 30
35 19 22
35 20 5
35 21 11
35 22 35
35 23 6
35 24 49
35 25 29
35 26 45
35 27 8
35 28 11
35 29 36
35 30 25
35 31 41
35 32 46
35 33 4
35 34 23
36 0 28
36 1 42
36 2 5
36 3 19
36 4 40
36 5 33
36 6 43
36 7 8
36 8 33
36 9 13
36 10 46
36 11 10
36 12 23
36 13 21
36 14 14
36 15 15
36 16 8
36 17 6
36 18 39
36 19 47
36 20 44
36 21 1
36 22 15
36 23 33
36 24 20
36 25 18
36 26 27
36 27 24
36 28 4
36 29 48
36 30 15
36 31 42
36 32 31
36 33 4
36 34 24
36 35 10
37 0 39
37 1 35
37 2 7
37 3 30
37 4 37
37 5 44
37 6 33
37 7 28
37 8 47
37 9 38
37 10 24
37 11 18
37 12 19
37 13 9
37 14 8
37 15 16
37 16 43
37 17 45
37 18 26
37 19 39
37 20 29
37 21 4
37 22 29
37 23 47
37 24 6
37 25 13
37 26 49
37 27 28
37 28 35
37 29 12
37 30 18
37 31 24
37 32 3
37 33 25
37 34 11
37 35 6
37 36 44
38 0 3
38 1 19
38 2 34
38 3 48
38 4 42
38 5 1
38 6 33
38 7 44
38 8 5
38 9 17
38 10 35
38 11 47
38 12 16
38 13 17
38 14 8
38 15 21
38 16 39
38 17 27
38 18 43
38 19 28
38 20 34
38 21 25
38 22 32
38 23 36
38 24 12
38 25 16
38 26 4
38 27 44
38 28 34
38 29 32
38 30 14
38 31 43
38 32 27
38 33 45
38 34 21
38 35 31
38 36 47
38 37 29
39 0 48
39 1 5
39 2 44
39 3 1
39 4 8
39 5 25
39 6 11
39 7 40
39 8 33
39 9 3
39 10 22
39 11 42
39 12 7
39 13 32
39 14 11
39 15 43
39 16 12
39 17 46
39 18 3
39 19 30
39 20 27
39 21 22
39 22 46
39 23 3
39 24 48
39 25 25
39 26 22
39 27 37
39 28 47
39 29 11
39 30 12
39 31 24
39 32 25
39 33 14
39 34 17
39 35 31
39 36 41
39 37 20
39 38 22
40 0 8
40 1 42
40 2 12
40 3 14
40 4 34
40 5 18
40 6 30
40 7 37
40 8 39
40 9 18
40 10 43
40 11 15
40 12 18
40 13 34
40 14 8
40 15 32
40 16 20
40 17 2
40 18 39
40 19 50
40 20 17
40 21 17
40 22 28
40 23 32
40 24 44
40 25 36
40 26 30
40 27 38
40 28 25
40 29 18
40 30 14
40 31 20
40 32 3
40 33 27
40 34 24
40 35 21
40 36 14
40 37 16
40 38 29
40 39 26
41 0 42
41 1 25
41 2 33
41 3 43
41 4 39
41 5 11
41 6 35
41 7 33
41 8 50
41 9 2
41 10 50
41 11 6
41 12 12
41 13 18
41 14 3
41 15 14
41 16 41
41 17 42
41 18 22
41 19 30
41 20 8
41 21 37
41 22 36
41 23 37
41 24 29
41 25 32
41 26 9
41 27 26
41 28 48
41 29 40
41 30 49
41 31 2
41 32 33
41 33 15
41 34 7
41 35 30
41 36 8
41 37 27
41 38 12
41 39 43
41 40 38
42 0 40
42 1 49
42 2 8
42 3 6
42 4 47
42 5 41
42 6 15
42 7 27
42 8 27
42 9 18
42 10 3
42 11 18
42 12 44
42 13 14
42 14 48
42 15 24
42 16 29
42 17 42
42 18 22
42 19 20
42 20 7
42 21 27
42 22 24
42 23 4
42 24 7
42 25 50
42 26 2
42 27 11
42 28 11
42 29 29
42 30 38
42 31 15
42 32 4
42 33 8
42 34 20
42 35 5
42 36 50
42 37 48
42 38 23
42 39 25
42 40 33
42 41 21
43 0 42
43 1 11
43 2 11
43 3 37
43 4 4
43 5 15
43 6 8
43 7 8
43 8 45
43 9 34
43 10 48
43 11 21
43 12 28
43 13 11
43 14 47
43 15 46
43 16 46
43 17 5
43 18 39
43 19 14
43 20 16
43 21 9
43 22 17
43 23 41
43 24 46
43 25 40
43 26 1
43 27 29
43 28 38
43 29 29
43 30 39
43 31 14
43 32 35
43 33 25
43 34 26
43 35 13
43 36 16
43 37 30
43 38 4
43 39 12
43 40 10
43 41 25
43 42 38
44 0 26
44 1 2
44 2 40
44 3 34
44 4 39
44 5 48
44 6 33
44 7 16
44 8 44
44 9 22
44 10 47
44 11 10
44 12 8
44 13 5
44 14 28
44 15 33
44 16 4
44 17 7
44 18 14
44 19 49
44 20 15
44 21 9
44 22 31
44 23 18
44 24 26
44 25 38
44 26 1
44 27 32
44 28 35
44 29 36
44 30 16
44 31 29
44 32 24
44 33 22
44 34 5
44 35 6
44 36 38
44 37 22
44 38 23
44 39 6
44 40 48
44 41 37
44 42 17
44 43 17
45 0 25
45 1 14
45 2 26
45 3 27
45 4 9
45 5 8
45 6 40
45 7 18
45 8 38
45 9 12
45 10 46
45 11 45
45 12 42
45 13 48
45 14 23
45 15 23
45 16 43
45 17 36
45 18 28
45 19 36
45 20 47
45 21 36
45 22 15
45 23 22
45 24 26
45 25 45
45 26 7
45 27 19
45 28 19
45 29 8
45 30 27
45 31 45
45 32 22
45 33 28
45 34 43
45 35 39
45 36 10
45 37 28
45 38 13
45 39 41
45 40 1
45 41 46
45 42 40
45 43 27
45 44 20
46 0 31
46 1 15
46 2 49
46 3 45
46 4 48
46 5 33
46 6 16
46 7 33
46 8 45
46 9 25
46 10 44
46 11 21
46 12 39
46 13 19
46 14 40
46 15 22
46 16 30
46 17 6
46 18 18
46 19 1
46 20 12
46 21 44
46 22 36
46 23 6
46 24 1
46 25 40
46 26 32
46 27 33
46 28 47
46 29 40
46 30 24
46 31 18
46 32 13
46 33 24
46 34 15
46 35 49
46 36 16
46 37 18
46 38 3
46 39 32
46 40 35
46 41 46
46 42 23
46 43 26
46 44 3
46 45 8
47 0 16
47 1 49
47 2 31
47 3 22
47 4 3
47 5 42
47 6 35
47 7 11
47 8 27
47 9 39
47 10 39
47 11 41
47 12 11
47 13 30
47 14 24
47 15 43
47 16 25
47 17 2
47 18 45
47 19 34
47 20 34
47 21 21
47 22 25
47 23 36
47 24 41
47 25 17
47 26 12
47 27 7
47 28 28
47 29 45
47 30 48
47 31 44
47 32 35
47 33 25
47 34 4
47 35 29
47 36 44
47 37 13
47 38 43
47 39 49
47 40 47
47 41 2
47 42 12
47 43 1
47 44 29
47 45 16
47 46 35
48 0 19
48 1 26
48 2 50
48 3 33
48 4 26
48 5 15
48 6 46
48 7 30
48 8 19
48 9 14
48 10 40
48 11 34
48 12 4
48 13 30
48 14 36
48 15 27
48 16 26
48 17 9
48 18 25
48 19 38
48 20 33
48 21 48
48 22 27
48 23 49
48 24 44
48 25 40
48 26 46
48 27 37
48 28 34
48 29 11
48 30 48
48 31 25
48 32 24
48 33 16
48 34 16
48 35 21
48 36 33
48 37 45
48 38 29
48 39 45
48 40 36
48 41 32
48 42 41
48 43 45
48 44 17
48 45 36
48 46 20
48 47 21
49 0 41
49 1 11
49 2 20
49 3 5
49 4 46
49 5 12
49 6 47
49 7 12
49 8 21
49 9 41
49 10 38
49 11 3
49 12 34
49 13 30
49 14 26
49 15 5
49 16 3
49 17 7
49 18 33
49 19 26
49 20 47
49 21 17
49 22 9
49 23 22
49 24 46
49 25 14
49 26 4
49 27 3
49 28 12
49 29 21
49 30 41
49 31 19
49 32 21
49 33 2
49 34 43
49 35 37
49 36 45
49 37 12
49 38 1
49 39 20
49 40 2
49 41 8
49 42 19
49 43 12
49 44 41
49 45 45
49 46 50
49 47 38
49 48 50
50 0 19
50 1 23
50 2 20
50 3 30
50 4 20
50 5 12
50 6 31
50 7 9
50 8 17
50 9 15
50 10 20
50 11 50
50 12 11
50 13 18
50 14 2
50 15 49
50 16 18
50 17 45
50 18 15
50 19 29
50 20 33
50 21 31
50 22 26
50 23 14
50 24 8
50 25 12
50 26 4
50 27 42
50 28 32
50 29 26
50 30 20
50 31 16
50 32 12
50 33 3
50 34 11
50 35 22
50 36 18
50 37 13
50 38 1
50 39 47
50 40 23
50 41 23
50 42 40
50 43 46
50 44 15
50 45 11
50 46 27
50 47 22
50 48 2
50 49 50
51 0 47
51 1 27
51 2 49
51 3 7
51 4 25
51 5 46
51 6 44
51 7 28
51 8 46
51 9 30
51 10 16
51 11 28
51 12 12
51 13 18
51 14 19
51 15 45
51 16 28
51 17 43
51 18 33
51 19 42
51 20 43
51 21 43
51 22 18
51 23 45
51 24 21
51 25 26
51 26 8
51 27 20
51 28 6
51 29 1
51 30 35
51 31 16
51 32 3
51 33 7
51 34 12
51 35 33
51 36 44
51 37 8
51 38 46
51 39 28
51 40 11
51 41 16
51 42 7
51 43 2
51 44 26
51 45 41
51 46 29
51 47 33
51 48 4
51 49 10
51 50 26
52 0 41
52 1 41
52 2 10
52 3 31
52 4 21
52 5 23
52 6 35
52 7 17
52 8 2
52 9 43
52 10 25
52 11 21
52 12 43
52 13 49
52 14 33
52 15 30
52 16 4
52 17 18
52 18 38
52 19 46
52 20 26
52 21 14
52 22 32
52 23 29
52 24 25
52 25 3
52 26 6
52 27 18
52 28 20
52 29 7
52 30 36
52 31 35
52 32 23
52 33 31
52 34 38
52 35 8
52 36 30
52 37 35
52 38 45
52 39 47
52 40 20
52 41 16
52 42 19
52 43 19
52 44 26
52 45 26
52 46 21
52 47 2
52 48 15
52 49 28
52 50 8
52 51 16
53 0 50
53 1 40
53 2 40
53 3 5
53 4 13
53 5 2
53 6 16
53 7 36
53 8 36
53 9 24
53 10 43
53 11 3
53 12 29
53 13 32
53 14 9
53 15 3
53 16 39
53 17 11
53 18 12
53 19 21
53 20 6
53 21 7
53 22 48
53 23 26
53 24 21
53 25 37
53 26 50
53 27 47
53 28 19
53 29 30
53 30 37
53 31 48
53 32 49
53 33 34
53 34 43
53 35 39
53 36 30
53 37 27
53 38 23
53 39 35
53 40 49
53 41 41
53 42 19
53 43 13
53 44 36
53 45 34
53 46 4
53 47 5
53 48 16
53 49 3
53 50 34
53 51 8
53 52 19
54 0 39
54 1 25
54 2 7
54 3 44
54 4 26
54 5 18
54 6 45
54 7 32
54 8 42
54 9 43
54 10 39
54 11 49
54 12 25
54 13 38
54 14 50
54 15 43
54 16 12
54 17 33
54 18 4
54 19 15
54 20 34
54 21 23
54 22 19
54 23 17
54 24 26
54 25 8
54 26 25
54 27 37
54 28 43
54 29 11
54 30 9
54 31 1
54 32 5
54 33 23
54 34 34
54 35 36
54 36 14
54 37 50
54 38 11
54 39 44
54 40 21
54 41 4
54 42 19
54 43 15
54 44 17
54 45 27
54 46 2
54 47 32
54 48 5
54 49 11
54 50 3
54 51 46
54 52 40
54 53 48
